-19871.0 -19661.0 
-19252.0 -20154.0 
-19871.0 -19661.0 
-19252.0 -20154.0 
-19810.0 -19871.0 
-19328.0 -20125.0 
-19421.0 -20108.0 
-19320.0 -20129.0 
-19816.0 -19798.0 
-19614.0 -20055.0 
-19421.0 -20108.0 
-19482.0 -20091.0 
-19484.0 -20079.0 
-19717.0 -19959.0 
-19524.0 -20066.0 
-19846.0 -19684.0 
-19838.0 -19724.0 
-19568.0 -20064.0 
-19765.0 -19873.0 
-19638.0 -20048.0 
-19744.0 -19901.0 
-19677.0 -19969.0 
-19642.0 -20026.0 
-19568.0 -20064.0 
-19673.0 -19976.0 
-19663.0 -19996.0 
-19739.0 -19929.0 
-19663.0 -19996.0 
-19832.0 -19751.0 
-19727.0 -19933.0 
-19817.0 -19777.0 
-19524.0 -20066.0 
-19838.0 -19724.0 
-19642.0 -20026.0 
-19816.0 -19798.0 
-19865.0 -19677.0 
-19832.0 -19751.0 
-19820.0 -19767.0 
-19482.0 -20091.0 
-19820.0 -19767.0 
-19758.0 -19895.0 
-19717.0 -19959.0 
-19677.0 -19969.0 
-19761.0 -19879.0 
-19856.0 -19681.0 
-19638.0 -20048.0 
-19856.0 -19681.0 
-19744.0 -19901.0 
-19759.0 -19888.0 
-19728.0 -19932.0 
-19846.0 -19684.0 
-19865.0 -19677.0 
-19759.0 -19888.0 
-19761.0 -19879.0 
-19739.0 -19929.0 
-19758.0 -19895.0 
-19810.0 -19871.0 
-19765.0 -19873.0 
-19728.0 -19932.0 
-19759.0 -19888.0 
-19759.0 -19888.0 
-19759.0 -19888.0 
-19759.0 -19888.0 
-19759.0 -19888.0 
-19759.0 -19888.0 
-19759.0 -19888.0 
-19759.0 -19888.0 
-19759.0 -19888.0 
-19759.0 -19888.0 
-19759.0 -19888.0 
-19759.0 -19888.0 
-19759.0 -19888.0 
-19759.0 -19888.0 
-19759.0 -19888.0 
-19759.0 -19888.0 
-19759.0 -19888.0 
-19759.0 -19888.0 
-19759.0 -19888.0 
-19759.0 -19888.0 
-19759.0 -19888.0 
-19759.0 -19888.0 
-19759.0 -19888.0 
-19759.0 -19888.0 
-19759.0 -19888.0 
-19759.0 -19888.0 
-19759.0 -19888.0 
-19759.0 -19888.0 
-19759.0 -19888.0 
-19759.0 -19888.0 
-19759.0 -19888.0 
-19759.0 -19888.0 
-19759.0 -19888.0 
-19759.0 -19888.0 
-19759.0 -19888.0 
-19759.0 -19888.0 
-19759.0 -19888.0 
-19759.0 -19888.0 
-19759.0 -19888.0 
-19759.0 -19888.0 
-19759.0 -19888.0 
